NAME: rand_0/map0_72
TYPE: TSP
COMMENT: autogenerated using a wonderful map creator
DIMENSION: 96
EDGE_WEIGHT_TYPE: EUC_2D
NODE_COORD_SECTION
1 78.0 8.0
2 79.0 6.0
3 81.0 6.0
4 80.0 2.0
5 81.0 2.0
6 2.0 8.0
7 4.0 2.0
8 80.0 3.0
9 3.0 1.0
10 4.0 3.0
11 1.0 8.0
12 4.0 8.0
13 5.0 2.0
14 79.0 9.0
15 80.0 9.0
16 2.0 7.0
17 1.0 1.0
18 79.0 4.0
19 80.0 6.0
20 80.0 7.0
21 3.0 3.0
22 4.0 6.0
23 5.0 4.0
24 79.0 8.0
25 5.0 3.0
26 3.0 5.0
27 82.0 2.0
28 3.0 4.0
29 82.0 3.0
30 82.0 8.0
31 5.0 7.0
32 2.0 5.0
33 2.0 9.0
34 5.0 8.0
35 81.0 5.0
36 79.0 2.0
37 2.0 6.0
38 2.0 1.0
39 81.0 3.0
40 1.0 5.0
41 4.0 5.0
42 78.0 2.0
43 79.0 1.0
44 79.0 7.0
45 80.0 4.0
46 4.0 9.0
47 78.0 4.0
48 79.0 3.0
49 62.0 8.0
50 55.0 2.0
51 36.0 7.0
52 42.0 2.0
53 75.0 8.0
54 68.0 2.0
55 35.0 8.0
56 24.0 8.0
57 26.0 5.0
58 13.0 8.0
59 72.0 2.0
60 59.0 2.0
61 70.0 2.0
62 37.0 8.0
63 28.0 5.0
64 52.0 8.0
65 21.0 2.0
66 51.0 2.0
67 49.0 2.0
68 73.0 5.0
69 31.0 8.0
70 36.0 4.0
71 47.0 4.0
72 9.0 5.0
73 11.0 2.0
74 75.0 5.0
75 68.0 8.0
76 39.0 5.0
77 36.0 6.0
78 58.0 3.0
79 61.0 8.0
80 10.0 8.0
81 45.0 2.0
82 14.0 5.0
83 58.0 5.0
84 67.0 8.0
85 62.0 2.0
86 18.0 2.0
87 31.0 5.0
88 24.0 2.0
89 57.0 8.0
90 59.0 8.0
91 52.0 2.0
92 76.0 5.0
93 54.0 2.0
94 23.0 5.0
95 58.0 2.0
96 47.0 8.0
97 16.0 2.0
98 73.0 8.0
99 38.0 8.0
100 20.0 2.0
101 55.0 5.0
102 58.0 4.0
103 42.0 5.0
104 11.0 8.0
105 57.0 5.0
106 26.0 8.0
107 72.0 5.0
108 14.0 6.0
109 58.0 6.0
110 59.0 5.0
111 19.0 5.0
112 30.0 5.0
113 74.0 5.0
114 76.0 2.0
115 65.0 2.0
116 23.0 2.0
117 34.0 8.0
118 38.0 5.0
119 49.0 5.0
120 18.0 8.0
START_DEPOT_SECTION
1
2
3
4
5
6
7
8
9
10
11
12
13
14
15
16
17
18
19
20
21
22
23
24
-1
END_DEPOT_SECTION
25
26
27
28
29
30
31
32
33
34
35
36
37
38
39
40
41
42
43
44
45
46
47
48
-1
EOF
